p edges 100 804
e 1 26
e 1 27
e 1 28
e 1 29
e 1 30
e 1 31
e 1 32
e 1 33
e 1 34
e 1 35
e 1 36
e 1 37
e 1 38
e 1 39
e 1 40
e 1 41
e 1 42
e 1 43
e 1 44
e 1 45
e 1 46
e 1 47
e 1 48
e 1 49
e 1 50
e 1 51
e 1 52
e 1 53
e 1 54
e 1 55
e 1 56
e 1 57
e 1 58
e 1 59
e 2 3
e 2 7
e 3 7
e 4 5
e 4 8
e 5 8
e 5 9
e 6 10
e 6 11
e 6 12
e 8 9
e 10 11
e 10 12
e 10 13
e 10 14
e 10 15
e 10 16
e 10 51
e 10 52
e 10 53
e 10 54
e 10 55
e 10 56
e 10 58
e 11 12
e 11 13
e 11 14
e 11 15
e 11 16
e 11 51
e 11 52
e 11 53
e 11 54
e 11 55
e 11 56
e 11 58
e 12 13
e 12 14
e 12 15
e 12 16
e 12 51
e 12 52
e 12 53
e 12 54
e 12 55
e 12 56
e 12 58
e 13 14
e 13 15
e 13 16
e 13 51
e 13 52
e 13 53
e 13 54
e 13 55
e 13 56
e 13 57
e 13 58
e 14 15
e 14 16
e 14 51
e 14 52
e 14 53
e 14 54
e 14 55
e 14 56
e 14 57
e 14 58
e 14 59
e 15 16
e 15 50
e 15 51
e 15 52
e 15 53
e 15 54
e 15 55
e 15 56
e 15 57
e 15 58
e 15 59
e 16 26
e 16 50
e 16 51
e 16 52
e 16 53
e 16 54
e 16 55
e 16 56
e 16 57
e 16 58
e 16 59
e 17 18
e 17 19
e 17 60
e 18 19
e 18 60
e 19 60
e 20 21
e 20 22
e 20 23
e 20 24
e 20 25
e 20 61
e 20 62
e 21 22
e 21 23
e 21 24
e 21 25
e 21 61
e 21 62
e 22 23
e 22 24
e 22 25
e 22 61
e 22 62
e 23 24
e 23 25
e 23 62
e 23 63
e 24 25
e 24 62
e 24 63
e 25 62
e 25 63
e 26 27
e 26 28
e 26 29
e 26 30
e 26 31
e 26 32
e 26 33
e 26 34
e 26 35
e 26 36
e 26 37
e 26 38
e 26 39
e 26 40
e 26 41
e 26 42
e 26 43
e 26 44
e 26 45
e 26 46
e 26 47
e 26 48
e 26 49
e 26 50
e 26 51
e 26 52
e 26 53
e 26 54
e 26 55
e 26 56
e 26 57
e 26 58
e 26 59
e 26 63
e 26 64
e 27 28
e 27 29
e 27 30
e 27 31
e 27 32
e 27 33
e 27 34
e 27 35
e 27 36
e 27 37
e 27 38
e 27 39
e 27 40
e 27 41
e 27 42
e 27 43
e 27 44
e 27 45
e 27 46
e 27 47
e 27 48
e 27 49
e 27 50
e 27 51
e 27 52
e 27 53
e 27 54
e 27 55
e 27 56
e 27 57
e 27 58
e 27 59
e 27 63
e 27 64
e 28 29
e 28 30
e 28 31
e 28 32
e 28 33
e 28 34
e 28 35
e 28 36
e 28 37
e 28 38
e 28 39
e 28 40
e 28 41
e 28 42
e 28 43
e 28 44
e 28 45
e 28 46
e 28 47
e 28 48
e 28 49
e 28 50
e 28 51
e 28 52
e 28 53
e 28 54
e 28 55
e 28 56
e 28 57
e 28 58
e 28 59
e 28 63
e 28 64
e 29 30
e 29 31
e 29 32
e 29 33
e 29 34
e 29 35
e 29 36
e 29 37
e 29 38
e 29 39
e 29 40
e 29 41
e 29 42
e 29 43
e 29 44
e 29 45
e 29 46
e 29 47
e 29 48
e 29 49
e 29 50
e 29 51
e 29 52
e 29 53
e 29 54
e 29 55
e 29 56
e 29 57
e 29 58
e 29 59
e 29 63
e 29 64
e 30 31
e 30 32
e 30 33
e 30 34
e 30 35
e 30 36
e 30 37
e 30 38
e 30 39
e 30 40
e 30 41
e 30 42
e 30 43
e 30 44
e 30 45
e 30 46
e 30 47
e 30 48
e 30 49
e 30 50
e 30 51
e 30 52
e 30 53
e 30 54
e 30 55
e 30 56
e 30 57
e 30 58
e 30 59
e 30 64
e 31 32
e 31 33
e 31 34
e 31 35
e 31 36
e 31 37
e 31 38
e 31 39
e 31 40
e 31 41
e 31 42
e 31 43
e 31 44
e 31 45
e 31 46
e 31 47
e 31 48
e 31 49
e 31 50
e 31 51
e 31 52
e 31 53
e 31 54
e 31 55
e 31 56
e 31 57
e 31 58
e 31 59
e 31 64
e 32 33
e 32 34
e 32 35
e 32 36
e 32 37
e 32 38
e 32 39
e 32 40
e 32 41
e 32 42
e 32 43
e 32 44
e 32 45
e 32 46
e 32 47
e 32 48
e 32 49
e 32 50
e 32 51
e 32 52
e 32 53
e 32 54
e 32 55
e 32 56
e 32 57
e 32 58
e 32 59
e 32 64
e 33 34
e 33 35
e 33 36
e 33 37
e 33 38
e 33 39
e 33 40
e 33 41
e 33 42
e 33 43
e 33 44
e 33 45
e 33 46
e 33 47
e 33 48
e 33 49
e 33 50
e 33 51
e 33 52
e 33 53
e 33 54
e 33 55
e 33 56
e 33 57
e 33 58
e 33 59
e 33 64
e 34 35
e 34 36
e 34 37
e 34 38
e 34 39
e 34 40
e 34 41
e 34 42
e 34 43
e 34 44
e 34 45
e 34 46
e 34 47
e 34 48
e 34 49
e 34 50
e 34 51
e 34 52
e 34 53
e 34 54
e 34 55
e 34 56
e 34 57
e 34 58
e 34 59
e 35 36
e 35 37
e 35 38
e 35 39
e 35 40
e 35 41
e 35 42
e 35 43
e 35 44
e 35 45
e 35 46
e 35 47
e 35 48
e 35 49
e 35 50
e 35 51
e 35 52
e 35 53
e 35 54
e 35 55
e 35 56
e 35 57
e 35 58
e 35 59
e 36 37
e 36 38
e 36 39
e 36 40
e 36 41
e 36 42
e 36 43
e 36 44
e 36 45
e 36 46
e 36 47
e 36 48
e 36 49
e 36 50
e 36 51
e 36 52
e 36 53
e 36 54
e 36 55
e 36 56
e 36 57
e 36 58
e 36 59
e 37 38
e 37 39
e 37 40
e 37 41
e 37 42
e 37 43
e 37 44
e 37 45
e 37 46
e 37 47
e 37 48
e 37 49
e 37 50
e 37 51
e 37 52
e 37 53
e 37 54
e 37 55
e 37 56
e 37 57
e 37 58
e 37 59
e 38 39
e 38 40
e 38 41
e 38 42
e 38 43
e 38 44
e 38 45
e 38 46
e 38 47
e 38 48
e 38 49
e 38 50
e 38 51
e 38 52
e 38 53
e 38 54
e 38 55
e 38 56
e 38 57
e 38 58
e 38 59
e 39 40
e 39 41
e 39 42
e 39 43
e 39 44
e 39 45
e 39 46
e 39 47
e 39 48
e 39 49
e 39 50
e 39 51
e 39 52
e 39 53
e 39 54
e 39 55
e 39 56
e 39 57
e 39 58
e 39 59
e 40 41
e 40 42
e 40 43
e 40 44
e 40 45
e 40 46
e 40 47
e 40 48
e 40 49
e 40 50
e 40 51
e 40 52
e 40 53
e 40 54
e 40 55
e 40 56
e 40 57
e 40 58
e 40 59
e 41 42
e 41 43
e 41 44
e 41 45
e 41 46
e 41 47
e 41 48
e 41 49
e 41 50
e 41 51
e 41 52
e 41 53
e 41 54
e 41 55
e 41 56
e 41 57
e 41 58
e 41 59
e 42 43
e 42 44
e 42 45
e 42 46
e 42 47
e 42 48
e 42 49
e 42 50
e 42 51
e 42 52
e 42 53
e 42 54
e 42 55
e 42 56
e 42 57
e 42 58
e 42 59
e 43 44
e 43 45
e 43 46
e 43 47
e 43 48
e 43 49
e 43 50
e 43 51
e 43 52
e 43 53
e 43 54
e 43 55
e 43 56
e 43 57
e 43 58
e 43 59
e 44 45
e 44 46
e 44 47
e 44 48
e 44 49
e 44 50
e 44 51
e 44 52
e 44 53
e 44 54
e 44 55
e 44 56
e 44 57
e 44 58
e 44 59
e 45 46
e 45 47
e 45 48
e 45 49
e 45 50
e 45 51
e 45 52
e 45 53
e 45 54
e 45 55
e 45 56
e 45 57
e 45 58
e 45 59
e 46 47
e 46 48
e 46 49
e 46 50
e 46 51
e 46 52
e 46 53
e 46 54
e 46 55
e 46 56
e 46 57
e 46 58
e 46 59
e 47 48
e 47 49
e 47 50
e 47 51
e 47 52
e 47 53
e 47 54
e 47 55
e 47 56
e 47 57
e 47 58
e 47 59
e 48 49
e 48 50
e 48 51
e 48 52
e 48 53
e 48 54
e 48 55
e 48 56
e 48 57
e 48 58
e 48 59
e 49 50
e 49 51
e 49 52
e 49 53
e 49 54
e 49 55
e 49 56
e 49 57
e 49 58
e 49 59
e 50 51
e 50 52
e 50 53
e 50 54
e 50 55
e 50 56
e 50 57
e 50 58
e 50 59
e 50 63
e 50 64
e 51 52
e 51 53
e 51 54
e 51 55
e 51 56
e 51 57
e 51 58
e 51 59
e 51 63
e 51 64
e 52 53
e 52 54
e 52 55
e 52 56
e 52 57
e 52 58
e 52 59
e 52 63
e 52 64
e 53 54
e 53 55
e 53 56
e 53 57
e 53 58
e 53 59
e 53 63
e 53 64
e 54 55
e 54 56
e 54 57
e 54 58
e 54 59
e 54 63
e 54 64
e 55 56
e 55 57
e 55 58
e 55 59
e 55 63
e 55 64
e 56 57
e 56 58
e 56 59
e 56 63
e 56 64
e 57 58
e 57 59
e 57 63
e 57 64
e 58 59
e 58 62
e 58 63
e 58 64
e 59 63
e 59 64
e 60 61
e 62 63
e 62 64
e 63 64
e 65 98
e 65 100
e 66 75
e 66 99
e 67 83
e 67 91
e 68 76
e 68 84
e 68 92
e 69 77
e 69 85
e 69 93
e 70 78
e 70 86
e 70 94
e 71 79
e 71 87
e 71 95
e 72 80
e 72 88
e 72 96
e 73 81
e 73 89
e 73 97
e 74 82
e 74 90
e 75 99
e 76 84
e 76 92
e 77 85
e 77 93
e 78 86
e 78 94
e 79 87
e 79 95
e 80 88
e 80 96
e 81 89
e 81 97
e 82 90
e 83 91
e 84 92
e 85 93
e 86 94
e 87 95
e 88 96
e 89 97
e 98 100
w 1 970
w 2 500
w 3 500
w 4 997
w 5 1
w 6 235
w 7 500
w 8 2
w 9 997
w 10 705
w 11 29
w 12 29
w 13 58
w 14 29
w 15 88
w 16 58
w 17 333
w 18 333
w 19 333
w 20 222
w 21 222
w 22 222
w 23 111
w 24 111
w 25 111
w 26 29
w 27 29
w 28 29
w 29 29
w 30 29
w 31 29
w 32 29
w 33 29
w 34 29
w 35 29
w 36 29
w 37 29
w 38 29
w 39 29
w 40 29
w 41 29
w 42 29
w 43 29
w 44 29
w 45 29
w 46 29
w 47 29
w 48 29
w 49 29
w 50 29
w 51 29
w 52 29
w 53 29
w 54 29
w 55 29
w 56 29
w 57 29
w 58 29
w 59 29
w 60 666
w 61 333
w 62 777
w 63 111
w 64 111
w 65 333
w 66 333
w 67 666
w 68 666
w 69 833
w 70 916
w 71 958
w 72 979
w 73 989
w 74 994
w 75 333
w 76 166
w 77 83
w 78 41
w 79 20
w 80 10
w 81 5
w 82 2
w 83 166
w 84 83
w 85 41
w 86 20
w 87 10
w 88 5
w 89 2
w 90 2
w 91 166
w 92 83
w 93 41
w 94 20
w 95 10
w 96 5
w 97 2
w 98 333
w 99 333
w 100 333
n 1 C2651
n 2 C0690
n 3 C0691
n 4 C0721
n 5 C0722
n 6 C0752
n 7 C0781
n 8 C1080
n 9 C1086
n 10 C1386
n 11 C1420
n 12 C1545
n 13 C1574
n 14 C1602
n 15 C1629
n 16 C1655
n 17 C1680
n 18 C1681
n 19 C1682
n 20 C1981
n 21 C1982
n 22 C1983
n 23 C1985
n 24 C1986
n 25 C1987
n 26 C2281
n 27 C2282
n 28 C2283
n 29 C2284
n 30 C2285
n 31 C2286
n 32 C2287
n 33 C2288
n 34 C2289
n 35 C2290
n 36 C2291
n 37 C2292
n 38 C2293
n 39 C2294
n 40 C2295
n 41 C2296
n 42 C2297
n 43 C2298
n 44 C2299
n 45 C2300
n 46 C2301
n 47 C2302
n 48 C2303
n 49 C2304
n 50 C2306
n 51 C2416
n 52 C2447
n 53 C2449
n 54 C2479
n 55 C2512
n 56 C2517
n 57 C2518
n 58 C2546
n 59 C2554
n 60 C2581
n 61 C2594
n 62 C2616
n 63 C2629
n 64 C2633
n 65 C0350
n 66 C0351
n 67 C0355
n 68 C0356
n 69 C0357
n 70 C0358
n 71 C0359
n 72 C0360
n 73 C0361
n 74 C0362
n 75 C0378
n 76 C0383
n 77 C0384
n 78 C0385
n 79 C0386
n 80 C0387
n 81 C0388
n 82 C0389
n 83 C0500
n 84 C0501
n 85 C0502
n 86 C0503
n 87 C0504
n 88 C0505
n 89 C0506
n 90 C0507
n 91 C0532
n 92 C0533
n 93 C0534
n 94 C0535
n 95 C0536
n 96 C0537
n 97 C0538
n 98 C0629
n 99 C0630
n 100 C0664
o 1 1
o 2 45
o 3 46
o 4 76
o 5 77
o 6 107
o 7 136
o 8 435
o 9 441
o 10 741
o 11 775
o 12 900
o 13 929
o 14 957
o 15 984
o 16 1010
o 17 1035
o 18 1036
o 19 1037
o 20 1336
o 21 1337
o 22 1338
o 23 1340
o 24 1341
o 25 1342
o 26 1636
o 27 1637
o 28 1638
o 29 1639
o 30 1640
o 31 1641
o 32 1642
o 33 1643
o 34 1644
o 35 1645
o 36 1646
o 37 1647
o 38 1648
o 39 1649
o 40 1650
o 41 1651
o 42 1652
o 43 1653
o 44 1654
o 45 1655
o 46 1656
o 47 1657
o 48 1658
o 49 1659
o 50 1661
o 51 1771
o 52 1802
o 53 1804
o 54 1834
o 55 1867
o 56 1872
o 57 1873
o 58 1901
o 59 1909
o 60 1936
o 61 1949
o 62 1971
o 63 1984
o 64 1988
o 65 2346
o 66 2347
o 67 2351
o 68 2352
o 69 2353
o 70 2354
o 71 2355
o 72 2356
o 73 2357
o 74 2358
o 75 2374
o 76 2379
o 77 2380
o 78 2381
o 79 2382
o 80 2383
o 81 2384
o 82 2385
o 83 2466
o 84 2467
o 85 2468
o 86 2469
o 87 2470
o 88 2471
o 89 2472
o 90 2473
o 91 2498
o 92 2499
o 93 2500
o 94 2501
o 95 2502
o 96 2503
o 97 2504
o 98 2595
o 99 2596
o 100 2630
